nK = 2216;
nT = 6;
nI = 14;
L = 29;
TT = 474;
np = 1;
nc = 3;
b = [41, 70, 48, 50, 48, 62, 69, 29, 54, 36, 55, 26, 20, 58];
d = [121, 147, 79, 99, 93, 128, 144, 85, 96, 89, 143, 61, 42, 149];
m = [1.3, 2.4, 1.9, 1.3, 2.5, 1, 1.6, 1, 1.5, 1.4, 1.5, 2.5, 1.7, 1.2];
pt = [0.33, 0.21, 0.24, 0.25, 0.33, 0.27];
st = [14.52, 8.61, 10.56, 11.5, 16.17, 14.58];
arc = {<1, 0, 1, 1, 0, 0, 0, [1, 1, 1, 1, 1, 1]>, <2, 1, 2, 1, 0, 0, 0, [1, 1, 1, 1, 1, 1]>, <3, 2, 3, 1, 0, 0, 0, [1, 1, 1, 1, 1, 1]>, <4, 3, 4, 1, 0, 0, 0, [1, 1, 1, 1, 1, 1]>, <5, 4, 5, 1, 0, 0, 0, [1, 1, 1, 1, 1, 1]>, <6, 5, 6, 1, 0, 0, 0, [1, 1, 1, 1, 1, 1]>, <7, 6, 7, 1, 0, 0, 0, [1, 1, 1, 1, 1, 1]>, <8, 7, 8, 1, 0, 0, 0, [1, 1, 1, 1, 1, 1]>, <9, 8, 9, 1, 0, 0, 0, [1, 1, 1, 1, 1, 1]>, <10, 9, 10, 1, 0, 0, 0, [1, 1, 1, 1, 1, 1]>, <11, 10, 11, 1, 0, 0, 0, [1, 1, 1, 1, 1, 1]>, <12, 11, 12, 1, 0, 0, 0, [1, 1, 1, 1, 1, 1]>, <13, 12, 13, 1, 0, 0, 0, [1, 1, 1, 1, 1, 1]>, <14, 13, 14, 1, 0, 0, 0, [1, 1, 1, 1, 1, 1]>, <15, 14, 15, 1, 0, 0, 0, [1, 1, 1, 1, 1, 1]>, <16, 15, 16, 1, 0, 0, 0, [1, 1, 1, 1, 1, 1]>, <17, 16, 17, 1, 0, 0, 0, [1, 1, 1, 1, 1, 1]>, <18, 17, 18, 1, 0, 0, 0, [1, 1, 1, 1, 1, 1]>, <19, 18, 19, 1, 0, 0, 0, [1, 1, 1, 1, 1, 1]>, <20, 19, 20, 1, 0, 0, 0, [1, 1, 1, 1, 1, 1]>, <21, 20, 21, 1, 0, 0, 0, [1, 1, 1, 1, 1, 1]>, <22, 21, 22, 1, 0, 0, 0, [1, 1, 1, 1, 1, 1]>, <23, 22, 23, 1, 0, 0, 0, [1, 1, 1, 1, 1, 1]>, <24, 23, 24, 1, 0, 0, 0, [1, 1, 1, 1, 1, 1]>, <25, 24, 25, 1, 0, 0, 0, [1, 1, 1, 1, 1, 1]>, <26, 25, 26, 1, 0, 0, 0, [1, 1, 1, 1, 1, 1]>, <27, 26, 27, 1, 0, 0, 0, [1, 1, 1, 1, 1, 1]>, <28, 27, 28, 1, 0, 0, 0, [1, 1, 1, 1, 1, 1]>, <29, 28, 29, 1, 0, 0, 0, [1, 1, 1, 1, 1, 1]>, <30, 0, 13, 13, 1, 0, 1, [1, 0, 0, 0, 0, 1]>, <31, 1, 14, 13, 1, 0, 1, [1, 0, 0, 0, 0, 1]>, <32, 2, 15, 13, 1, 0, 1, [1, 0, 0, 0, 0, 1]>, <33, 3, 16, 13, 1, 0, 1, [1, 0, 0, 0, 0, 1]>, <34, 4, 17, 13, 1, 0, 1, [1, 0, 0, 0, 0, 1]>, <35, 5, 18, 13, 1, 0, 1, [1, 0, 0, 0, 0, 1]>, <36, 7, 20, 13, 1, 0, 1, [1, 0, 0, 0, 0, 1]>, <37, 8, 21, 13, 1, 0, 1, [1, 0, 0, 0, 0, 1]>, <38, 9, 22, 13, 1, 0, 1, [1, 0, 0, 0, 0, 1]>, <39, 10, 23, 13, 1, 0, 1, [1, 0, 0, 0, 0, 1]>, <40, 11, 24, 13, 1, 0, 1, [1, 0, 0, 0, 0, 1]>, <41, 12, 25, 13, 1, 0, 1, [1, 0, 0, 0, 0, 1]>, <42, 13, 26, 13, 1, 0, 1, [1, 0, 0, 0, 0, 1]>, <43, 14, 27, 13, 1, 0, 1, [1, 0, 0, 0, 0, 1]>, <44, 15, 28, 13, 1, 0, 1, [1, 0, 0, 0, 0, 1]>, <45, 16, 29, 13, 1, 0, 1, [1, 0, 0, 0, 0, 1]>, <46, 0, 18, 18, 2, 1, 0, [0, 0, 0, 1, 1, 0]>, <47, 1, 19, 18, 2, 1, 0, [0, 0, 0, 1, 1, 0]>, <48, 2, 20, 18, 2, 1, 0, [0, 0, 0, 1, 1, 0]>, <49, 3, 21, 18, 2, 1, 0, [0, 0, 0, 1, 1, 0]>, <50, 4, 22, 18, 2, 1, 0, [0, 0, 0, 1, 1, 0]>, <51, 5, 23, 18, 2, 1, 0, [0, 0, 0, 1, 1, 0]>, <52, 6, 24, 18, 2, 1, 0, [0, 0, 0, 1, 1, 0]>, <53, 7, 25, 18, 2, 1, 0, [0, 0, 0, 1, 1, 0]>, <54, 8, 26, 18, 2, 1, 0, [0, 0, 0, 1, 1, 0]>, <55, 9, 27, 18, 2, 1, 0, [0, 0, 0, 1, 1, 0]>, <56, 10, 28, 18, 2, 1, 0, [0, 0, 0, 1, 1, 0]>, <57, 11, 29, 18, 2, 1, 0, [0, 0, 0, 1, 1, 0]>, <58, 0, 17, 17, 3, 0, 1, [1, 0, 0, 0, 0, 1]>, <59, 1, 18, 17, 3, 0, 1, [1, 0, 0, 0, 0, 1]>, <60, 2, 19, 17, 3, 0, 1, [1, 0, 0, 0, 0, 1]>, <61, 3, 20, 17, 3, 0, 1, [1, 0, 0, 0, 0, 1]>, <62, 4, 21, 17, 3, 0, 1, [1, 0, 0, 0, 0, 1]>, <63, 5, 22, 17, 3, 0, 1, [1, 0, 0, 0, 0, 1]>, <64, 6, 23, 17, 3, 0, 1, [1, 0, 0, 0, 0, 1]>, <65, 7, 24, 17, 3, 0, 1, [1, 0, 0, 0, 0, 1]>, <66, 8, 25, 17, 3, 0, 1, [1, 0, 0, 0, 0, 1]>, <67, 9, 26, 17, 3, 0, 1, [1, 0, 0, 0, 0, 1]>, <68, 10, 27, 17, 3, 0, 1, [1, 0, 0, 0, 0, 1]>, <69, 11, 28, 17, 3, 0, 1, [1, 0, 0, 0, 0, 1]>, <70, 12, 29, 17, 3, 0, 1, [1, 0, 0, 0, 0, 1]>, <71, 0, 15, 15, 4, 0, 1, [1, 0, 0, 0, 0, 1]>, <72, 1, 16, 15, 4, 0, 1, [1, 0, 0, 0, 0, 1]>, <73, 2, 17, 15, 4, 0, 1, [1, 0, 0, 0, 0, 1]>, <74, 3, 18, 15, 4, 0, 1, [1, 0, 0, 0, 0, 1]>, <75, 4, 19, 15, 4, 0, 1, [1, 0, 0, 0, 0, 1]>, <76, 5, 20, 15, 4, 0, 1, [1, 0, 0, 0, 0, 1]>, <77, 6, 21, 15, 4, 0, 1, [1, 0, 0, 0, 0, 1]>, <78, 7, 22, 15, 4, 0, 1, [1, 0, 0, 0, 0, 1]>, <79, 8, 23, 15, 4, 0, 1, [1, 0, 0, 0, 0, 1]>, <80, 9, 24, 15, 4, 0, 1, [1, 0, 0, 0, 0, 1]>, <81, 10, 25, 15, 4, 0, 1, [1, 0, 0, 0, 0, 1]>, <82, 11, 26, 15, 4, 0, 1, [1, 0, 0, 0, 0, 1]>, <83, 12, 27, 15, 4, 0, 1, [1, 0, 0, 0, 0, 1]>, <84, 13, 28, 15, 4, 0, 1, [1, 0, 0, 0, 0, 1]>, <85, 14, 29, 15, 4, 0, 1, [1, 0, 0, 0, 0, 1]>, <86, 0, 15, 15, 5, 0, 0, [1, 0, 0, 0, 0, 1]>, <87, 1, 16, 15, 5, 0, 0, [1, 0, 0, 0, 0, 1]>, <88, 2, 17, 15, 5, 0, 0, [1, 0, 0, 0, 0, 1]>, <89, 3, 18, 15, 5, 0, 0, [1, 0, 0, 0, 0, 1]>, <90, 4, 19, 15, 5, 0, 0, [1, 0, 0, 0, 0, 1]>, <91, 5, 20, 15, 5, 0, 0, [1, 0, 0, 0, 0, 1]>, <92, 6, 21, 15, 5, 0, 0, [1, 0, 0, 0, 0, 1]>, <93, 7, 22, 15, 5, 0, 0, [1, 0, 0, 0, 0, 1]>, <94, 8, 23, 15, 5, 0, 0, [1, 0, 0, 0, 0, 1]>, <95, 9, 24, 15, 5, 0, 0, [1, 0, 0, 0, 0, 1]>, <96, 10, 25, 15, 5, 0, 0, [1, 0, 0, 0, 0, 1]>, <97, 11, 26, 15, 5, 0, 0, [1, 0, 0, 0, 0, 1]>, <98, 12, 27, 15, 5, 0, 0, [1, 0, 0, 0, 0, 1]>, <99, 13, 28, 15, 5, 0, 0, [1, 0, 0, 0, 0, 1]>, <100, 14, 29, 15, 5, 0, 0, [1, 0, 0, 0, 0, 1]>, <101, 0, 13, 13, 6, 0, 0, [1, 1, 0, 0, 0, 0]>, <102, 1, 14, 13, 6, 0, 0, [1, 1, 0, 0, 0, 0]>, <103, 2, 15, 13, 6, 0, 0, [1, 1, 0, 0, 0, 0]>, <104, 3, 16, 13, 6, 0, 0, [1, 1, 0, 0, 0, 0]>, <105, 4, 17, 13, 6, 0, 0, [1, 1, 0, 0, 0, 0]>, <106, 5, 18, 13, 6, 0, 0, [1, 1, 0, 0, 0, 0]>, <107, 7, 20, 13, 6, 0, 0, [1, 1, 0, 0, 0, 0]>, <108, 8, 21, 13, 6, 0, 0, [1, 1, 0, 0, 0, 0]>, <109, 9, 22, 13, 6, 0, 0, [1, 1, 0, 0, 0, 0]>, <110, 10, 23, 13, 6, 0, 0, [1, 1, 0, 0, 0, 0]>, <111, 11, 24, 13, 6, 0, 0, [1, 1, 0, 0, 0, 0]>, <112, 12, 25, 13, 6, 0, 0, [1, 1, 0, 0, 0, 0]>, <113, 13, 26, 13, 6, 0, 0, [1, 1, 0, 0, 0, 0]>, <114, 14, 27, 13, 6, 0, 0, [1, 1, 0, 0, 0, 0]>, <115, 15, 28, 13, 6, 0, 0, [1, 1, 0, 0, 0, 0]>, <116, 16, 29, 13, 6, 0, 0, [1, 1, 0, 0, 0, 0]>, <117, 0, 14, 14, 7, 0, 1, [1, 0, 0, 0, 0, 1]>, <118, 1, 15, 14, 7, 0, 1, [1, 0, 0, 0, 0, 1]>, <119, 2, 16, 14, 7, 0, 1, [1, 0, 0, 0, 0, 1]>, <120, 3, 17, 14, 7, 0, 1, [1, 0, 0, 0, 0, 1]>, <121, 4, 18, 14, 7, 0, 1, [1, 0, 0, 0, 0, 1]>, <122, 5, 19, 14, 7, 0, 1, [1, 0, 0, 0, 0, 1]>, <123, 6, 20, 14, 7, 0, 1, [1, 0, 0, 0, 0, 1]>, <124, 7, 21, 14, 7, 0, 1, [1, 0, 0, 0, 0, 1]>, <125, 8, 22, 14, 7, 0, 1, [1, 0, 0, 0, 0, 1]>, <126, 9, 23, 14, 7, 0, 1, [1, 0, 0, 0, 0, 1]>, <127, 10, 24, 14, 7, 0, 1, [1, 0, 0, 0, 0, 1]>, <128, 11, 25, 14, 7, 0, 1, [1, 0, 0, 0, 0, 1]>, <129, 12, 26, 14, 7, 0, 1, [1, 0, 0, 0, 0, 1]>, <130, 13, 27, 14, 7, 0, 1, [1, 0, 0, 0, 0, 1]>, <131, 14, 28, 14, 7, 0, 1, [1, 0, 0, 0, 0, 1]>, <132, 15, 29, 14, 7, 0, 1, [1, 0, 0, 0, 0, 1]>, <133, 0, 16, 16, 8, 0, 1, [1, 1, 0, 0, 0, 0]>, <134, 1, 17, 16, 8, 0, 1, [1, 1, 0, 0, 0, 0]>, <135, 2, 18, 16, 8, 0, 1, [1, 1, 0, 0, 0, 0]>, <136, 3, 19, 16, 8, 0, 1, [1, 1, 0, 0, 0, 0]>, <137, 4, 20, 16, 8, 0, 1, [1, 1, 0, 0, 0, 0]>, <138, 5, 21, 16, 8, 0, 1, [1, 1, 0, 0, 0, 0]>, <139, 6, 22, 16, 8, 0, 1, [1, 1, 0, 0, 0, 0]>, <140, 7, 23, 16, 8, 0, 1, [1, 1, 0, 0, 0, 0]>, <141, 8, 24, 16, 8, 0, 1, [1, 1, 0, 0, 0, 0]>, <142, 9, 25, 16, 8, 0, 1, [1, 1, 0, 0, 0, 0]>, <143, 10, 26, 16, 8, 0, 1, [1, 1, 0, 0, 0, 0]>, <144, 11, 27, 16, 8, 0, 1, [1, 1, 0, 0, 0, 0]>, <145, 12, 28, 16, 8, 0, 1, [1, 1, 0, 0, 0, 0]>, <146, 13, 29, 16, 8, 0, 1, [1, 1, 0, 0, 0, 0]>, <147, 0, 16, 16, 9, 1, 0, [1, 1, 0, 0, 0, 0]>, <148, 1, 17, 16, 9, 1, 0, [1, 1, 0, 0, 0, 0]>, <149, 2, 18, 16, 9, 1, 0, [1, 1, 0, 0, 0, 0]>, <150, 3, 19, 16, 9, 1, 0, [1, 1, 0, 0, 0, 0]>, <151, 4, 20, 16, 9, 1, 0, [1, 1, 0, 0, 0, 0]>, <152, 5, 21, 16, 9, 1, 0, [1, 1, 0, 0, 0, 0]>, <153, 6, 22, 16, 9, 1, 0, [1, 1, 0, 0, 0, 0]>, <154, 7, 23, 16, 9, 1, 0, [1, 1, 0, 0, 0, 0]>, <155, 8, 24, 16, 9, 1, 0, [1, 1, 0, 0, 0, 0]>, <156, 9, 25, 16, 9, 1, 0, [1, 1, 0, 0, 0, 0]>, <157, 10, 26, 16, 9, 1, 0, [1, 1, 0, 0, 0, 0]>, <158, 11, 27, 16, 9, 1, 0, [1, 1, 0, 0, 0, 0]>, <159, 12, 28, 16, 9, 1, 0, [1, 1, 0, 0, 0, 0]>, <160, 13, 29, 16, 9, 1, 0, [1, 1, 0, 0, 0, 0]>, <161, 0, 18, 18, 10, 0, 0, [0, 0, 1, 1, 0, 0]>, <162, 1, 19, 18, 10, 0, 0, [0, 0, 1, 1, 0, 0]>, <163, 2, 20, 18, 10, 0, 0, [0, 0, 1, 1, 0, 0]>, <164, 3, 21, 18, 10, 0, 0, [0, 0, 1, 1, 0, 0]>, <165, 4, 22, 18, 10, 0, 0, [0, 0, 1, 1, 0, 0]>, <166, 5, 23, 18, 10, 0, 0, [0, 0, 1, 1, 0, 0]>, <167, 6, 24, 18, 10, 0, 0, [0, 0, 1, 1, 0, 0]>, <168, 7, 25, 18, 10, 0, 0, [0, 0, 1, 1, 0, 0]>, <169, 8, 26, 18, 10, 0, 0, [0, 0, 1, 1, 0, 0]>, <170, 9, 27, 18, 10, 0, 0, [0, 0, 1, 1, 0, 0]>, <171, 10, 28, 18, 10, 0, 0, [0, 0, 1, 1, 0, 0]>, <172, 11, 29, 18, 10, 0, 0, [0, 0, 1, 1, 0, 0]>, <173, 0, 18, 18, 11, 0, 1, [0, 0, 0, 0, 1, 1]>, <174, 1, 19, 18, 11, 0, 1, [0, 0, 0, 0, 1, 1]>, <175, 2, 20, 18, 11, 0, 1, [0, 0, 0, 0, 1, 1]>, <176, 3, 21, 18, 11, 0, 1, [0, 0, 0, 0, 1, 1]>, <177, 4, 22, 18, 11, 0, 1, [0, 0, 0, 0, 1, 1]>, <178, 5, 23, 18, 11, 0, 1, [0, 0, 0, 0, 1, 1]>, <179, 6, 24, 18, 11, 0, 1, [0, 0, 0, 0, 1, 1]>, <180, 7, 25, 18, 11, 0, 1, [0, 0, 0, 0, 1, 1]>, <181, 8, 26, 18, 11, 0, 1, [0, 0, 0, 0, 1, 1]>, <182, 9, 27, 18, 11, 0, 1, [0, 0, 0, 0, 1, 1]>, <183, 10, 28, 18, 11, 0, 1, [0, 0, 0, 0, 1, 1]>, <184, 11, 29, 18, 11, 0, 1, [0, 0, 0, 0, 1, 1]>, <185, 0, 16, 16, 12, 1, 0, [0, 1, 1, 0, 0, 0]>, <186, 1, 17, 16, 12, 1, 0, [0, 1, 1, 0, 0, 0]>, <187, 2, 18, 16, 12, 1, 0, [0, 1, 1, 0, 0, 0]>, <188, 3, 19, 16, 12, 1, 0, [0, 1, 1, 0, 0, 0]>, <189, 4, 20, 16, 12, 1, 0, [0, 1, 1, 0, 0, 0]>, <190, 5, 21, 16, 12, 1, 0, [0, 1, 1, 0, 0, 0]>, <191, 6, 22, 16, 12, 1, 0, [0, 1, 1, 0, 0, 0]>, <192, 7, 23, 16, 12, 1, 0, [0, 1, 1, 0, 0, 0]>, <193, 8, 24, 16, 12, 1, 0, [0, 1, 1, 0, 0, 0]>, <194, 9, 25, 16, 12, 1, 0, [0, 1, 1, 0, 0, 0]>, <195, 10, 26, 16, 12, 1, 0, [0, 1, 1, 0, 0, 0]>, <196, 11, 27, 16, 12, 1, 0, [0, 1, 1, 0, 0, 0]>, <197, 12, 28, 16, 12, 1, 0, [0, 1, 1, 0, 0, 0]>, <198, 13, 29, 16, 12, 1, 0, [0, 1, 1, 0, 0, 0]>, <199, 0, 14, 14, 13, 0, 1, [1, 1, 0, 0, 0, 0]>, <200, 1, 15, 14, 13, 0, 1, [1, 1, 0, 0, 0, 0]>, <201, 2, 16, 14, 13, 0, 1, [1, 1, 0, 0, 0, 0]>, <202, 3, 17, 14, 13, 0, 1, [1, 1, 0, 0, 0, 0]>, <203, 4, 18, 14, 13, 0, 1, [1, 1, 0, 0, 0, 0]>, <204, 5, 19, 14, 13, 0, 1, [1, 1, 0, 0, 0, 0]>, <205, 6, 20, 14, 13, 0, 1, [1, 1, 0, 0, 0, 0]>, <206, 7, 21, 14, 13, 0, 1, [1, 1, 0, 0, 0, 0]>, <207, 8, 22, 14, 13, 0, 1, [1, 1, 0, 0, 0, 0]>, <208, 9, 23, 14, 13, 0, 1, [1, 1, 0, 0, 0, 0]>, <209, 10, 24, 14, 13, 0, 1, [1, 1, 0, 0, 0, 0]>, <210, 11, 25, 14, 13, 0, 1, [1, 1, 0, 0, 0, 0]>, <211, 12, 26, 14, 13, 0, 1, [1, 1, 0, 0, 0, 0]>, <212, 13, 27, 14, 13, 0, 1, [1, 1, 0, 0, 0, 0]>, <213, 14, 28, 14, 13, 0, 1, [1, 1, 0, 0, 0, 0]>, <214, 15, 29, 14, 13, 0, 1, [1, 1, 0, 0, 0, 0]>, <215, 0, 18, 18, 14, 0, 1, [0, 0, 0, 0, 1, 1]>, <216, 1, 19, 18, 14, 0, 1, [0, 0, 0, 0, 1, 1]>, <217, 2, 20, 18, 14, 0, 1, [0, 0, 0, 0, 1, 1]>, <218, 3, 21, 18, 14, 0, 1, [0, 0, 0, 0, 1, 1]>, <219, 4, 22, 18, 14, 0, 1, [0, 0, 0, 0, 1, 1]>, <220, 5, 23, 18, 14, 0, 1, [0, 0, 0, 0, 1, 1]>, <221, 6, 24, 18, 14, 0, 1, [0, 0, 0, 0, 1, 1]>, <222, 7, 25, 18, 14, 0, 1, [0, 0, 0, 0, 1, 1]>, <223, 8, 26, 18, 14, 0, 1, [0, 0, 0, 0, 1, 1]>, <224, 9, 27, 18, 14, 0, 1, [0, 0, 0, 0, 1, 1]>, <225, 10, 28, 18, 14, 0, 1, [0, 0, 0, 0, 1, 1]>, <226, 11, 29, 18, 14, 0, 1, [0, 0, 0, 0, 1, 1]>};
